c description: Random 3-CNF over 14 variables and 70 clauses
p cnf 14 70
10 -12 14 0
5 -6 -11 0
-6 -12 13 0
-1 -4 13 0
12 -13 -14 0
2 4 -14 0
-2 3 14 0
3 -11 -13 0
3 -8 14 0
-5 -6 11 0
-4 10 11 0
-3 10 -14 0
-5 -6 -9 0
1 -3 -10 0
2 5 -12 0
2 6 14 0
-6 7 -13 0
-3 9 13 0
3 -11 14 0
2 -9 14 0
2 -9 -11 0
2 5 -9 0
-4 5 -11 0
-2 -13 -14 0
5 -7 8 0
-1 -4 -8 0
1 -2 -11 0
1 -9 14 0
5 7 -8 0
5 7 -14 0
4 -6 13 0
1 -5 10 0
6 8 13 0
9 12 14 0
-4 -6 -14 0
3 -4 11 0
-2 -8 11 0
-3 -10 12 0
1 7 12 0
1 -2 8 0
1 -7 -8 0
-1 -9 14 0
-1 -11 14 0
-1 8 -9 0
-10 11 -12 0
2 -12 13 0
2 -10 12 0
2 -3 11 0
-4 8 13 0
-1 -8 11 0
1 4 11 0
8 -10 -12 0
-1 -6 8 0
6 9 11 0
4 6 -13 0
-1 -8 10 0
-4 8 11 0
1 5 9 0
-3 5 13 0
-3 12 -13 0
-3 7 9 0
-2 -13 14 0
-9 -12 14 0
2 -11 -12 0
-8 -10 11 0
4 -6 -12 0
1 -2 13 0
2 -4 -5 0
5 8 12 0
4 -5 -8 0